(set-info :source |printed by MathSAT|)
(declare-fun |.x{14}| () (Array Int Int))
(declare-fun |.x{18}| () (Array Int Int))
(declare-fun |.x{15}| () (Array Int Int))
(declare-fun |.x{19}| () (Array Int Int))
(declare-fun |.x{16}| () Int)
(declare-fun |.x{20}| () Int)
(declare-fun |.x{17}| () Int)
(declare-fun |.x{21}| () Int)
(declare-fun |.loc{2}| () Bool)
(declare-fun |.loc{3}| () Bool)
(declare-fun |.x{9}| () Int)
(declare-fun |.x{34}| () Int)
(define-fun .def_14 () Int (! |.x{17}| :next |.x{21}|))
(define-fun .def_63 () Bool (= .def_14 10000))
(define-fun .def_12 () Int (! |.x{16}| :next |.x{20}|))
(define-fun .def_61 () Bool (= .def_12 0))
(define-fun .def_64 () Bool (and .def_61 .def_63))
(define-fun .def_16 () Bool (! |.loc{2}| :next |.loc{3}|))
(define-fun .def_32 () Bool (not .def_16))
(define-fun .def_65 () Bool (! (and .def_32 .def_64) :init true))
(define-fun .def_59 () Bool (= .def_14 |.x{21}|))
(define-fun .def_52 () Bool (= |.x{20}| 0))
(define-fun .def_8 () (Array Int Int) (! |.x{14}| :next |.x{18}|))
(define-fun .def_49 () Bool (= .def_8 |.x{18}|))
(define-fun .def_10 () (Array Int Int) (! |.x{15}| :next |.x{19}|))
(define-fun .def_48 () Bool (= .def_10 |.x{19}|))
(define-fun .def_50 () Bool (and .def_48 .def_49))
(define-fun .def_53 () Bool (and .def_50 .def_52))
(define-fun .def_34 () Bool (<= .def_14 .def_12))
(define-fun .def_54 () Bool (and .def_34 .def_53))
(define-fun .def_55 () Bool (and .def_32 .def_54))
(define-fun .def_43 () Int (select .def_8 .def_12))
(define-fun .def_44 () (Array Int Int) (store .def_10 .def_12 .def_43))
(define-fun .def_45 () Bool (= |.x{19}| .def_44))
(define-fun .def_37 () Int (select .def_10 .def_12))
(define-fun .def_38 () Int (* (- 1) .def_37))
(define-fun .def_39 () (Array Int Int) (store .def_8 .def_12 .def_38))
(define-fun .def_40 () Bool (= |.x{18}| .def_39))
(define-fun .def_20 () Int (* (- 1) |.x{20}|))
(define-fun .def_21 () Int (+ .def_12 .def_20))
(define-fun .def_22 () Bool (= .def_21 (- 1)))
(define-fun .def_41 () Bool (and .def_22 .def_40))
(define-fun .def_42 () Bool (and .def_16 .def_41))
(define-fun .def_46 () Bool (and .def_42 .def_45))
(define-fun .def_35 () Bool (not .def_34))
(define-fun .def_47 () Bool (and .def_35 .def_46))
(define-fun .def_56 () Bool (or .def_47 .def_55))
(define-fun .def_57 () Bool (and |.loc{3}| .def_56))
(define-fun .def_28 () Int (* (- 1) |.x{9}|))
(define-fun .def_29 () (Array Int Int) (store .def_10 .def_12 .def_28))
(define-fun .def_30 () Bool (= |.x{19}| .def_29))
(define-fun .def_25 () (Array Int Int) (store .def_8 .def_12 |.x{9}|))
(define-fun .def_26 () Bool (= |.x{18}| .def_25))
(define-fun .def_18 () Bool (not |.loc{3}|))
(define-fun .def_23 () Bool (and .def_18 .def_22))
(define-fun .def_27 () Bool (and .def_23 .def_26))
(define-fun .def_31 () Bool (and .def_27 .def_30))
(define-fun .def_33 () Bool (and .def_31 .def_32))
(define-fun .def_36 () Bool (and .def_33 .def_35))
(define-fun .def_58 () Bool (or .def_36 .def_57))
(define-fun .def_60 () Bool (! (and .def_58 .def_59) :trans true))
(define-fun .def_66 () Int (! |.x{34}| :next |.xpv{1}|))
(define-fun .def_73 () Bool (<= .def_66 0))
(define-fun .def_74 () Bool (not .def_73))
(define-fun .def_75 () Bool (and .def_34 .def_74))
(define-fun .def_71 () Bool (<= .def_14 .def_66))
(define-fun .def_72 () Bool (not .def_71))
(define-fun .def_76 () Bool (and .def_72 .def_75))
(define-fun .def_68 () Int (select .def_10 .def_66))
(define-fun .def_67 () Int (select .def_8 .def_66))
(define-fun .def_69 () Bool (= .def_67 .def_68))
(define-fun .def_70 () Bool (not .def_69))
(define-fun .def_77 () Bool (and .def_70 .def_76))
(define-fun .def_78 () Bool (and .def_16 .def_77))
(define-fun .def_80 () Bool (! (not .def_78) :invar-property 0))
(assert true)
